instances/knapsack/discrete/knapsack_140_13.kp
11841
140
694

21 2.1 90
82 8.2 78
12 1.2 36
53 5.3 72
62 6.2 73
83 8.3 69
87 8.7 97
5 0.5 31
27 2.7 38
24 2.4 14
5 0.5 51
29 2.9 71
94 9.4 75
86 8.6 14
86 8.6 55
62 6.2 32
47 4.7 70
82 8.2 22
31 3.1 42
84 8.4 13
87 8.7 17
61 6.1 71
74 7.4 24
52 5.2 8
22 2.2 33
54 5.4 54
92 9.2 16
73 7.3 95
99 9.9 82
97 9.7 52
11 1.1 21
53 5.3 100
93 9.3 84
67 6.7 43
22 2.2 47
35 3.5 25
58 5.8 53
94 9.4 99
34 3.4 62
8 0.8 19
89 8.9 4
71 7.1 85
48 4.8 21
87 8.7 31
41 4.1 94
8 0.8 63
31 3.1 96
95 9.5 24
41 4.1 56
26 2.6 77
100 10.0 3
22 2.2 10
91 9.1 63
14 1.4 53
42 4.2 96
41 4.1 6
95 9.5 22
16 1.6 60
50 5.0 8
68 6.8 39
90 9.0 40
36 3.6 98
81 8.1 13
84 8.4 73
89 8.9 62
58 5.8 33
86 8.6 13
72 7.2 45
42 4.2 96
31 3.1 33
67 6.7 21
51 5.1 3
68 6.8 41
45 4.5 21
89 8.9 62
38 3.8 38
20 2.0 66
73 7.3 1
26 2.6 60
4 0.4 3
43 4.3 39
87 8.7 42
68 6.8 21
35 3.5 18
23 2.3 13
7 0.7 40
33 3.3 74
10 1.0 67
4 0.4 36
9 0.9 94
10 1.0 50
94 9.4 29
98 9.8 69
25 2.5 80
58 5.8 68
75 7.5 2
19 1.9 9
50 5.0 80
18 1.8 48
18 1.8 92
75 7.5 84
66 6.6 1
72 7.2 14
74 7.4 21
79 7.9 63
52 5.2 15
21 2.1 30
88 8.8 52
12 1.2 70
15 1.5 72
32 3.2 73
25 2.5 2
3 0.3 33
63 6.3 79
67 6.7 38
36 3.6 33
49 4.9 23
87 8.7 69
99 9.9 66
86 8.6 3
97 9.7 49
10 1.0 46
97 9.7 54
24 2.4 15
7 0.7 51
68 6.8 40
49 4.9 28
37 3.7 62
56 5.6 91
57 5.7 28
67 6.7 26
79 7.9 7
16 1.6 36
54 5.4 66
98 9.8 65
8 0.8 87
27 2.7 32
12 1.2 85
15 1.5 99
54 5.4 13

25722
638

[0.5 1.52 3.92 3.2 1.89 1.39 2.93 3.34 4.08 1.78 0.1 4.07 3.25 0.16 3.0 1.99 1.41 2.43 4.46 2.48 2.62 0.62 2.99 3.6 4.43 3.81 1.33 3.48 0.96 0.7 3.24 4.05 2.11 4.2 3.99 0.33 2.34 0.82 4.27 1.69 3.71 1.59 0.81 4.51 4.43 1.43 2.25 3.68 2.36 0.99 1.53 3.5 0.49 2.67 3.32 3.2 1.0 3.54 3.66 2.48 3.99 1.14 0.01 0.21 3.08 3.99 3.72 1.63 2.84 4.22 0.45 0.39 4.19 1.25 3.51 1.14 4.09 3.69 2.91 1.77 1.1 3.91 1.47 2.92 3.21 0.56 0.56 0.11 3.53 0.89 3.72 0.53 0.91 2.97 4.41 4.26 0.25 2.95 2.99 3.85 3.81 4.48 3.96 3.92 4.07 4.14 2.84 3.53 0.2 4.26 1.52 3.14 2.52 3.87 4.35 3.64 2.99 2.99 0.94 4.28 3.04 3.0 0.18 3.95 0.47 3.2 4.44 0.22 0.08 0.19 1.21 4.0 2.63 3.44 3.07 4.42 1.52 4.13 0.94 2.17]

[20 44 2 47 32 82 25 16 25 94 8 7 36 64 25 21 73 12 13 2 73 96 48 23 17 36 46 52 14 55 2 88 12 69 60 53 52 77 16 39 23 50 2 34 11 27 54 22 67 8 91 24 97 64 21 48 65 19 44 70 29 99 72 59 76 88 49 71 32 10 50 70 66 75 40 21 87 43 9 39 46 30 99 18 62 6 16 92 90 11 89 9 69 80 80 81 17 17 76 4 81 52 66 44 93 42 51 31 59 73 55 59 45 77 81 55 15 45 21 21 76 53 8 11 97 67 28 76 67 35 66 97 63 24 57 82 77 67 70 24]
