instances/knapsack/discrete_knapsack_uncertainty/knapsack_140_13.lp
\ Model knapsack_140_13
\ LP format - for model browsing. Use MPS format to capture full model detail.
\ Signature: 0x9977cb8fbdb63468
Minimize
  - 77 x[0] - 13 x[1] - 83 x[2] - 55 x[3] - 56 x[4] - 8 x[5] - 20 x[6]
   - 42 x[7] - 45 x[8] - 49 x[9] - 98 x[10] - 66 x[11] - 58 x[12]
   - 61 x[13] - 18 x[14] - 67 x[15] - 17 x[16] - 89 x[17] - 5 x[18]
   - 32 x[19] - 16 x[20] - 22 x[21] - 79 x[22] - 67 x[23] - 20 x[24]
   - 45 x[25] - 91 x[26] - 22 x[27] - 65 x[28] - 11 x[29] - 96 x[30]
   - 87 x[31] - 79 x[32] - 10 x[33] - 42 x[34] - 52 x[35] - 40 x[36]
   - 38 x[37] - 77 x[38] - 82 x[39] - 35 x[40] - 52 x[41] - 68 x[42]
   - 30 x[43] - 89 x[44] - 70 x[45] - 55 x[46] - 71 x[47] - 59 x[48]
   - 64 x[49] - 74 x[50] - 45 x[51] - 10 x[52] - 96 x[53] - 19 x[54]
   - 17 x[55] - 57 x[56] - 99 x[57] - 23 x[58] - 2 x[59] - 35 x[60]
   - 5 x[61] - 36 x[62] - 44 x[63] - 53 x[64] - 32 x[65] - 40 x[66]
   - 76 x[67] - 27 x[68] - 4 x[69] - 84 x[70] - 38 x[71] - 36 x[72]
   - 16 x[73] - 97 x[74] - 65 x[75] - 77 x[76] - 48 x[77] - 43 x[78]
   - 34 x[79] - 66 x[80] - 81 x[81] - 56 x[82] - 5 x[83] - 60 x[84]
   - 43 x[85] - 29 x[86] - 74 x[87] - 71 x[88] - 21 x[89] - 57 x[90]
   - 56 x[91] - 32 x[92] - 71 x[93] - 63 x[94] - 85 x[95] - 20 x[96]
   - 47 x[97] - 39 x[98] - 71 x[99] - 47 x[100] - 36 x[101] - 5 x[102]
   - 80 x[103] - 66 x[104] - 58 x[105] - 89 x[106] - 19 x[107] - 97 x[108]
   - 31 x[109] - 96 x[110] - 13 x[111] - 52 x[112] - 34 x[113] - 81 x[114]
   - 88 x[115] - 46 x[116] - 60 x[117] - 93 x[118] - 98 x[119] - 8 x[120]
   - 93 x[121] - 45 x[122] - 22 x[123] - 70 x[124] - 99 x[125] - 99 x[126]
   - 5 x[127] - 82 x[128] - 95 x[129] - 37 x[130] - 78 x[131] - 51 x[132]
   - 21 x[133] - 56 x[134] - 2 x[135] - 35 x[136] - 92 x[137] - 82 x[138]
   - 80 x[139]
Subject To
 primal_upper: 96 x[0] + 93 x[1] + 3 x[2] + 8 x[3] + 81 x[4] + 22 x[5]
   + 90 x[6] + 88 x[7] + 42 x[8] + 3 x[9] + 40 x[10] + 52 x[11] + 53 x[12]
   + 49 x[13] + 85 x[14] + 33 x[15] + 82 x[16] + 53 x[17] + 22 x[18]
   + 59 x[19] + 90 x[20] + 56 x[21] + 21 x[22] + 11 x[23] + 69 x[24]
   + 37 x[25] + 55 x[26] + 84 x[27] + 78 x[28] + 100 x[29] + 70 x[30]
   + 84 x[31] + 8 x[32] + 30 x[33] + 65 x[34] + 58 x[35] + 73 x[36]
   + 73 x[37] + 85 x[38] + 67 x[39] + 8 x[40] + 74 x[41] + 83 x[42]
   + 62 x[43] + 80 x[44] + 35 x[45] + 86 x[46] + 70 x[47] + 44 x[48]
   + 93 x[49] + 67 x[50] + 9 x[51] + 38 x[52] + 61 x[53] + 57 x[54]
   + 80 x[55] + 54 x[56] + 71 x[57] + 77 x[58] + 19 x[59] + 93 x[60]
   + 55 x[61] + 56 x[62] + 75 x[63] + 20 x[64] + 45 x[65] + 57 x[66]
   + 39 x[67] + 37 x[68] + 42 x[69] + 74 x[70] + 18 x[71] + 3 x[72]
   + 28 x[73] + 12 x[74] + 53 x[75] + 67 x[76] + 68 x[77] + 17 x[78]
   + 27 x[79] + 82 x[80] + 50 x[81] + 63 x[82] + 42 x[83] + 6 x[84]
   + 26 x[85] + 20 x[86] + 77 x[87] + 55 x[88] + 40 x[89] + 69 x[90]
   + x[91] + 9 x[92] + 56 x[93] + 69 x[94] + 46 x[95] + 86 x[96] + 21 x[97]
   + 21 x[98] + 97 x[99] + 14 x[100] + 17 x[101] + 63 x[102] + 25 x[103]
   + 82 x[104] + 47 x[105] + 12 x[106] + 83 x[107] + 23 x[108] + 22 x[109]
   + 47 x[110] + 16 x[111] + 14 x[112] + 90 x[113] + 70 x[114] + 31 x[115]
   + 88 x[116] + 6 x[117] + 46 x[118] + 77 x[119] + 52 x[120] + 69 x[121]
   + 52 x[122] + 23 x[123] + 74 x[124] + 11 x[125] + 84 x[126] + 16 x[127]
   + 3 x[128] + 36 x[129] + 42 x[130] + 18 x[131] + 11 x[132] + 41 x[133]
   + x[134] + 63 x[135] + 38 x[136] + 35 x[137] + 14 x[138] + 45 x[139]
   + 9.6 r[0] + 9.3 r[1] + 0.3 r[2] + 0.8 r[3] + 8.1 r[4] + 2.2 r[5]
   + 9 r[6] + 8.8 r[7] + 4.2 r[8] + 0.3 r[9] + 4 r[10] + 5.2 r[11]
   + 5.3 r[12] + 4.9 r[13] + 8.5 r[14] + 3.3 r[15] + 8.2 r[16] + 5.3 r[17]
   + 2.2 r[18] + 5.9 r[19] + 9 r[20] + 5.6 r[21] + 2.1 r[22] + 1.1 r[23]
   + 6.9 r[24] + 3.7 r[25] + 5.5 r[26] + 8.4 r[27] + 7.8 r[28] + 10 r[29]
   + 7 r[30] + 8.4 r[31] + 0.8 r[32] + 3 r[33] + 6.5 r[34] + 5.8 r[35]
   + 7.3 r[36] + 7.3 r[37] + 8.5 r[38] + 6.7 r[39] + 0.8 r[40] + 7.4 r[41]
   + 8.3 r[42] + 6.2 r[43] + 8 r[44] + 3.5 r[45] + 8.6 r[46] + 7 r[47]
   + 4.4 r[48] + 9.3 r[49] + 6.7 r[50] + 0.9 r[51] + 3.8 r[52] + 6.1 r[53]
   + 5.7 r[54] + 8 r[55] + 5.4 r[56] + 7.1 r[57] + 7.7 r[58] + 1.9 r[59]
   + 9.3 r[60] + 5.5 r[61] + 5.6 r[62] + 7.5 r[63] + 2 r[64] + 4.5 r[65]
   + 5.7 r[66] + 3.9 r[67] + 3.7 r[68] + 4.2 r[69] + 7.4 r[70] + 1.8 r[71]
   + 0.3 r[72] + 2.8 r[73] + 1.2 r[74] + 5.3 r[75] + 6.7 r[76] + 6.8 r[77]
   + 1.7 r[78] + 2.7 r[79] + 8.2 r[80] + 5 r[81] + 6.3 r[82] + 4.2 r[83]
   + 0.6 r[84] + 2.6 r[85] + 2 r[86] + 7.7 r[87] + 5.5 r[88] + 4 r[89]
   + 6.9 r[90] + 0.1 r[91] + 0.9 r[92] + 5.6 r[93] + 6.9 r[94] + 4.6 r[95]
   + 8.6 r[96] + 2.1 r[97] + 2.1 r[98] + 9.7 r[99] + 1.4 r[100]
   + 1.7 r[101] + 6.3 r[102] + 2.5 r[103] + 8.2 r[104] + 4.7 r[105]
   + 1.2 r[106] + 8.3 r[107] + 2.3 r[108] + 2.2 r[109] + 4.7 r[110]
   + 1.6 r[111] + 1.4 r[112] + 9 r[113] + 7 r[114] + 3.1 r[115]
   + 8.8 r[116] + 0.6 r[117] + 4.6 r[118] + 7.7 r[119] + 5.2 r[120]
   + 6.9 r[121] + 5.2 r[122] + 2.3 r[123] + 7.4 r[124] + 1.1 r[125]
   + 8.4 r[126] + 1.6 r[127] + 0.3 r[128] + 3.6 r[129] + 4.2 r[130]
   + 1.8 r[131] + 1.1 r[132] + 4.1 r[133] + 0.1 r[134] + 6.3 r[135]
   + 3.8 r[136] + 3.5 r[137] + 1.4 r[138] + 4.5 r[139] <= 653
 primal_lower: 0.9136586353304471 x[0] + 2.307333037401626 x[1]
   + 0.4875184060724589 x[2] + 2.503238392178699 x[3]
   + 2.328204864806044 x[4] + 4.244969667958412 x[5]
   + 2.847199663569032 x[6] + 2.188504102387468 x[7]
   + 1.870734688009901 x[8] + 3.163372390159907 x[9]
   + 3.491896732761425 x[10] + 4.000450268837395 x[11]
   + 5.034677879725039 x[12] + 5.035080657848328 x[13]
   + 4.897998114784851 x[14] + 4.174473433476146 x[15]
   + 5.061843684692047 x[16] + 2.849032405903739 x[17]
   + 3.356717186179726 x[18] + 1.549939297105251 x[19]
   + 3.725108736858482 x[20] + 2.326300038781431 x[21]
   + 3.007836248374561 x[22] + 3.712540739363234 x[23]
   + 0.4055612101881441 x[24] + 2.743391801818547 x[25]
   + 3.844066031875932 x[26] + 2.764513085349522 x[27]
   + 4.366700167474479 x[28] + 3.695928748310619 x[29]
   + 0.4926729871003365 x[30] + 0.4984096081234459 x[31]
   + 2.822276351969343 x[32] + 3.432342241666983 x[33]
   + 4.344730862524598 x[34] + 2.278996830028689 x[35]
   + 3.485268035648013 x[36] + 3.401350755108158 x[37]
   + 2.519974419215157 x[38] + 2.580060939145116 x[39]
   + 0.3393159205502189 x[40] + 3.538213427893095 x[41]
   + 1.071392570786104 x[42] + 1.550848758910125 x[43]
   + 4.657078237519242 x[44] + 2.30771173192344 x[45]
   + 3.46348934000351 x[46] + 0.3985326849269806 x[47]
   + 3.802594921693625 x[48] + 0.6252847187579319 x[49]
   + 4.454066915281762 x[50] + 3.331618955427639 x[51]
   + 3.630664279116239 x[52] + 1.296614409449119 x[53]
   + 2.113072127478489 x[54] + 0.728132626935534 x[55]
   + 3.988129203923156 x[56] + 3.89344087483233 x[57]
   + 2.31447737263448 x[58] + 2.806295800909503 x[59]
   + 3.306177442435781 x[60] + 0.187847863703414 x[61]
   + 1.08166287656334 x[62] + 2.362166344691856 x[63]
   + 0.1337467441875116 x[64] + 2.791464783549017 x[65]
   + 3.265136173259996 x[66] + 0.1097373295860325 x[67]
   + 1.003833814655881 x[68] + 4.844681161838008 x[69]
   + 1.880178357014609 x[70] + 4.004510710122799 x[71]
   + 3.800257305120764 x[72] + 3.831168603622085 x[73]
   + 3.228920314526336 x[74] + 1.500997066411819 x[75]
   + 0.5266107106163688 x[76] + 0.6807700966819423 x[77]
   + 4.583130786762872 x[78] + 0.3889178386220092 x[79]
   + 0.6546958880942014 x[80] + 1.903780929437801 x[81]
   + 0.547464245780996 x[82] + 4.476269674043138 x[83]
   + 0.5121506861995219 x[84] + 4.746201188556044 x[85]
   + 0.2143401281804661 x[86] + 3.150191077419572 x[87]
   + 0.8868732236959024 x[88] + 1.442258797517656 x[89]
   + 3.722779962921035 x[90] + 3.753775181907431 x[91]
   + 3.868756942834888 x[92] + 4.153849151813924 x[93]
   + 2.482393119096876 x[94] + 3.791102197783186 x[95]
   + 4.176945158509807 x[96] + 5.134542636655321 x[97]
   + 3.319354950523536 x[98] + 1.203191764380411 x[99]
   + 0.7112895617483742 x[100] + 2.852754936809709 x[101]
   + 2.361272645402207 x[102] + 0.9740367522879365 x[103]
   + 2.93233179417769 x[104] + 3.327051604414499 x[105]
   + 2.908379867696318 x[106] + 1.308725856049825 x[107]
   + 3.28810410471802 x[108] + 1.507943629480396 x[109]
   + 1.507290817302279 x[110] + 1.453511963127605 x[111]
   + 1.955002181736163 x[112] + 1.578864412788239 x[113]
   + 4.502244443733741 x[114] + 3.618426584241615 x[115]
   + 1.092577091825921 x[116] + 1.769658818301974 x[117]
   + 0.6474362734620299 x[118] + 4.384346586462996 x[119]
   + 0.3722464976322898 x[120] + 3.258883544846721 x[121]
   + 1.187723126755621 x[122] + 4.354088134039269 x[123]
   + 4.034254441526832 x[124] + 4.288888461804753 x[125]
   + 1.246902246630379 x[126] + 1.316039869618185 x[127]
   + 1.239092882351073 x[128] + 4.964302652525635 x[129]
   + 3.022210177189226 x[130] + 4.57940711720828 x[131]
   + 3.428789832979826 x[132] + 1.267900438890388 x[133]
   + 1.590913783359396 x[134] + 4.182753351128947 x[135]
   + 3.74119650323085 x[136] + 0.5798063049838279 x[137]
   + 2.489789806152825 x[138] + 2.107981612847414 x[139] + 86 u[0]
   + 59 u[1] + 13 u[2] + 70 u[3] + 67 u[4] + 64 u[5] + 100 u[6] + 74 u[7]
   + 100 u[8] + 49 u[9] + 50 u[10] + 38 u[11] + 43 u[12] + 19 u[13]
   + 31 u[14] + 39 u[15] + 20 u[16] + 59 u[17] + 60 u[18] + 69 u[19]
   + 84 u[20] + 94 u[21] + 3 u[22] + 37 u[23] + 27 u[24] + 35 u[25]
   + 33 u[26] + 78 u[27] + 8 u[28] + 74 u[29] + 88 u[30] + 10 u[31]
   + 14 u[32] + 44 u[33] + 71 u[34] + 16 u[35] + 87 u[36] + 47 u[37]
   + 3 u[38] + 93 u[39] + 86 u[40] + 92 u[41] + 5 u[42] + 48 u[43]
   + 34 u[44] + 53 u[45] + 56 u[46] + 40 u[47] + 74 u[48] + 15 u[49]
   + 49 u[50] + 95 u[51] + 64 u[52] + 99 u[53] + 39 u[54] + 58 u[55]
   + 24 u[56] + 41 u[57] + 47 u[58] + 25 u[59] + 55 u[60] + 57 u[61]
   + 98 u[62] + 77 u[63] + 66 u[64] + 59 u[65] + 71 u[66] + 89 u[67]
   + 23 u[68] + 40 u[69] + 84 u[70] + 76 u[71] + 13 u[72] + 90 u[73]
   + 26 u[74] + 23 u[75] + 33 u[76] + 42 u[77] + 39 u[78] + 21 u[79]
   + 72 u[80] + 24 u[81] + 33 u[82] + 76 u[83] + 76 u[84] + 12 u[85]
   + 78 u[86] + 91 u[87] + 77 u[88] + 90 u[89] + 59 u[90] + 63 u[91]
   + 71 u[92] + 58 u[93] + 71 u[94] + 20 u[95] + 24 u[96] + 23 u[97]
   + 31 u[98] + 91 u[99] + 68 u[100] + 95 u[101] + 93 u[102] + 67 u[103]
   + 84 u[104] + 13 u[105] + 34 u[106] + 93 u[107] + 69 u[108] + 40 u[109]
   + 37 u[110] + 66 u[111] + 64 u[112] + 24 u[113] + 64 u[114] + 53 u[115]
   + 70 u[116] + 8 u[117] + 20 u[118] + 79 u[119] + 42 u[120] + 67 u[121]
   + 46 u[122] + 93 u[123] + 92 u[124] + 29 u[125] + 82 u[126] + 46 u[127]
   + 81 u[128] + 54 u[129] + 4 u[130] + 100 u[131] + 73 u[132] + 3 u[133]
   + 11 u[134] + 5 u[135] + 84 u[136] + 93 u[137] + 32 u[138] + 83 u[139]
   <= 61531
 mccormick1[0]: - u[0] + r[0] <= 0
 mccormick1[1]: - u[1] + r[1] <= 0
 mccormick1[2]: - u[2] + r[2] <= 0
 mccormick1[3]: - u[3] + r[3] <= 0
 mccormick1[4]: - u[4] + r[4] <= 0
 mccormick1[5]: - u[5] + r[5] <= 0
 mccormick1[6]: - u[6] + r[6] <= 0
 mccormick1[7]: - u[7] + r[7] <= 0
 mccormick1[8]: - u[8] + r[8] <= 0
 mccormick1[9]: - u[9] + r[9] <= 0
 mccormick1[10]: - u[10] + r[10] <= 0
 mccormick1[11]: - u[11] + r[11] <= 0
 mccormick1[12]: - u[12] + r[12] <= 0
 mccormick1[13]: - u[13] + r[13] <= 0
 mccormick1[14]: - u[14] + r[14] <= 0
 mccormick1[15]: - u[15] + r[15] <= 0
 mccormick1[16]: - u[16] + r[16] <= 0
 mccormick1[17]: - u[17] + r[17] <= 0
 mccormick1[18]: - u[18] + r[18] <= 0
 mccormick1[19]: - u[19] + r[19] <= 0
 mccormick1[20]: - u[20] + r[20] <= 0
 mccormick1[21]: - u[21] + r[21] <= 0
 mccormick1[22]: - u[22] + r[22] <= 0
 mccormick1[23]: - u[23] + r[23] <= 0
 mccormick1[24]: - u[24] + r[24] <= 0
 mccormick1[25]: - u[25] + r[25] <= 0
 mccormick1[26]: - u[26] + r[26] <= 0
 mccormick1[27]: - u[27] + r[27] <= 0
 mccormick1[28]: - u[28] + r[28] <= 0
 mccormick1[29]: - u[29] + r[29] <= 0
 mccormick1[30]: - u[30] + r[30] <= 0
 mccormick1[31]: - u[31] + r[31] <= 0
 mccormick1[32]: - u[32] + r[32] <= 0
 mccormick1[33]: - u[33] + r[33] <= 0
 mccormick1[34]: - u[34] + r[34] <= 0
 mccormick1[35]: - u[35] + r[35] <= 0
 mccormick1[36]: - u[36] + r[36] <= 0
 mccormick1[37]: - u[37] + r[37] <= 0
 mccormick1[38]: - u[38] + r[38] <= 0
 mccormick1[39]: - u[39] + r[39] <= 0
 mccormick1[40]: - u[40] + r[40] <= 0
 mccormick1[41]: - u[41] + r[41] <= 0
 mccormick1[42]: - u[42] + r[42] <= 0
 mccormick1[43]: - u[43] + r[43] <= 0
 mccormick1[44]: - u[44] + r[44] <= 0
 mccormick1[45]: - u[45] + r[45] <= 0
 mccormick1[46]: - u[46] + r[46] <= 0
 mccormick1[47]: - u[47] + r[47] <= 0
 mccormick1[48]: - u[48] + r[48] <= 0
 mccormick1[49]: - u[49] + r[49] <= 0
 mccormick1[50]: - u[50] + r[50] <= 0
 mccormick1[51]: - u[51] + r[51] <= 0
 mccormick1[52]: - u[52] + r[52] <= 0
 mccormick1[53]: - u[53] + r[53] <= 0
 mccormick1[54]: - u[54] + r[54] <= 0
 mccormick1[55]: - u[55] + r[55] <= 0
 mccormick1[56]: - u[56] + r[56] <= 0
 mccormick1[57]: - u[57] + r[57] <= 0
 mccormick1[58]: - u[58] + r[58] <= 0
 mccormick1[59]: - u[59] + r[59] <= 0
 mccormick1[60]: - u[60] + r[60] <= 0
 mccormick1[61]: - u[61] + r[61] <= 0
 mccormick1[62]: - u[62] + r[62] <= 0
 mccormick1[63]: - u[63] + r[63] <= 0
 mccormick1[64]: - u[64] + r[64] <= 0
 mccormick1[65]: - u[65] + r[65] <= 0
 mccormick1[66]: - u[66] + r[66] <= 0
 mccormick1[67]: - u[67] + r[67] <= 0
 mccormick1[68]: - u[68] + r[68] <= 0
 mccormick1[69]: - u[69] + r[69] <= 0
 mccormick1[70]: - u[70] + r[70] <= 0
 mccormick1[71]: - u[71] + r[71] <= 0
 mccormick1[72]: - u[72] + r[72] <= 0
 mccormick1[73]: - u[73] + r[73] <= 0
 mccormick1[74]: - u[74] + r[74] <= 0
 mccormick1[75]: - u[75] + r[75] <= 0
 mccormick1[76]: - u[76] + r[76] <= 0
 mccormick1[77]: - u[77] + r[77] <= 0
 mccormick1[78]: - u[78] + r[78] <= 0
 mccormick1[79]: - u[79] + r[79] <= 0
 mccormick1[80]: - u[80] + r[80] <= 0
 mccormick1[81]: - u[81] + r[81] <= 0
 mccormick1[82]: - u[82] + r[82] <= 0
 mccormick1[83]: - u[83] + r[83] <= 0
 mccormick1[84]: - u[84] + r[84] <= 0
 mccormick1[85]: - u[85] + r[85] <= 0
 mccormick1[86]: - u[86] + r[86] <= 0
 mccormick1[87]: - u[87] + r[87] <= 0
 mccormick1[88]: - u[88] + r[88] <= 0
 mccormick1[89]: - u[89] + r[89] <= 0
 mccormick1[90]: - u[90] + r[90] <= 0
 mccormick1[91]: - u[91] + r[91] <= 0
 mccormick1[92]: - u[92] + r[92] <= 0
 mccormick1[93]: - u[93] + r[93] <= 0
 mccormick1[94]: - u[94] + r[94] <= 0
 mccormick1[95]: - u[95] + r[95] <= 0
 mccormick1[96]: - u[96] + r[96] <= 0
 mccormick1[97]: - u[97] + r[97] <= 0
 mccormick1[98]: - u[98] + r[98] <= 0
 mccormick1[99]: - u[99] + r[99] <= 0
 mccormick1[100]: - u[100] + r[100] <= 0
 mccormick1[101]: - u[101] + r[101] <= 0
 mccormick1[102]: - u[102] + r[102] <= 0
 mccormick1[103]: - u[103] + r[103] <= 0
 mccormick1[104]: - u[104] + r[104] <= 0
 mccormick1[105]: - u[105] + r[105] <= 0
 mccormick1[106]: - u[106] + r[106] <= 0
 mccormick1[107]: - u[107] + r[107] <= 0
 mccormick1[108]: - u[108] + r[108] <= 0
 mccormick1[109]: - u[109] + r[109] <= 0
 mccormick1[110]: - u[110] + r[110] <= 0
 mccormick1[111]: - u[111] + r[111] <= 0
 mccormick1[112]: - u[112] + r[112] <= 0
 mccormick1[113]: - u[113] + r[113] <= 0
 mccormick1[114]: - u[114] + r[114] <= 0
 mccormick1[115]: - u[115] + r[115] <= 0
 mccormick1[116]: - u[116] + r[116] <= 0
 mccormick1[117]: - u[117] + r[117] <= 0
 mccormick1[118]: - u[118] + r[118] <= 0
 mccormick1[119]: - u[119] + r[119] <= 0
 mccormick1[120]: - u[120] + r[120] <= 0
 mccormick1[121]: - u[121] + r[121] <= 0
 mccormick1[122]: - u[122] + r[122] <= 0
 mccormick1[123]: - u[123] + r[123] <= 0
 mccormick1[124]: - u[124] + r[124] <= 0
 mccormick1[125]: - u[125] + r[125] <= 0
 mccormick1[126]: - u[126] + r[126] <= 0
 mccormick1[127]: - u[127] + r[127] <= 0
 mccormick1[128]: - u[128] + r[128] <= 0
 mccormick1[129]: - u[129] + r[129] <= 0
 mccormick1[130]: - u[130] + r[130] <= 0
 mccormick1[131]: - u[131] + r[131] <= 0
 mccormick1[132]: - u[132] + r[132] <= 0
 mccormick1[133]: - u[133] + r[133] <= 0
 mccormick1[134]: - u[134] + r[134] <= 0
 mccormick1[135]: - u[135] + r[135] <= 0
 mccormick1[136]: - u[136] + r[136] <= 0
 mccormick1[137]: - u[137] + r[137] <= 0
 mccormick1[138]: - u[138] + r[138] <= 0
 mccormick1[139]: - u[139] + r[139] <= 0
 mccormick2[0]: - x[0] + r[0] <= 0
 mccormick2[1]: - x[1] + r[1] <= 0
 mccormick2[2]: - x[2] + r[2] <= 0
 mccormick2[3]: - x[3] + r[3] <= 0
 mccormick2[4]: - x[4] + r[4] <= 0
 mccormick2[5]: - x[5] + r[5] <= 0
 mccormick2[6]: - x[6] + r[6] <= 0
 mccormick2[7]: - x[7] + r[7] <= 0
 mccormick2[8]: - x[8] + r[8] <= 0
 mccormick2[9]: - x[9] + r[9] <= 0
 mccormick2[10]: - x[10] + r[10] <= 0
 mccormick2[11]: - x[11] + r[11] <= 0
 mccormick2[12]: - x[12] + r[12] <= 0
 mccormick2[13]: - x[13] + r[13] <= 0
 mccormick2[14]: - x[14] + r[14] <= 0
 mccormick2[15]: - x[15] + r[15] <= 0
 mccormick2[16]: - x[16] + r[16] <= 0
 mccormick2[17]: - x[17] + r[17] <= 0
 mccormick2[18]: - x[18] + r[18] <= 0
 mccormick2[19]: - x[19] + r[19] <= 0
 mccormick2[20]: - x[20] + r[20] <= 0
 mccormick2[21]: - x[21] + r[21] <= 0
 mccormick2[22]: - x[22] + r[22] <= 0
 mccormick2[23]: - x[23] + r[23] <= 0
 mccormick2[24]: - x[24] + r[24] <= 0
 mccormick2[25]: - x[25] + r[25] <= 0
 mccormick2[26]: - x[26] + r[26] <= 0
 mccormick2[27]: - x[27] + r[27] <= 0
 mccormick2[28]: - x[28] + r[28] <= 0
 mccormick2[29]: - x[29] + r[29] <= 0
 mccormick2[30]: - x[30] + r[30] <= 0
 mccormick2[31]: - x[31] + r[31] <= 0
 mccormick2[32]: - x[32] + r[32] <= 0
 mccormick2[33]: - x[33] + r[33] <= 0
 mccormick2[34]: - x[34] + r[34] <= 0
 mccormick2[35]: - x[35] + r[35] <= 0
 mccormick2[36]: - x[36] + r[36] <= 0
 mccormick2[37]: - x[37] + r[37] <= 0
 mccormick2[38]: - x[38] + r[38] <= 0
 mccormick2[39]: - x[39] + r[39] <= 0
 mccormick2[40]: - x[40] + r[40] <= 0
 mccormick2[41]: - x[41] + r[41] <= 0
 mccormick2[42]: - x[42] + r[42] <= 0
 mccormick2[43]: - x[43] + r[43] <= 0
 mccormick2[44]: - x[44] + r[44] <= 0
 mccormick2[45]: - x[45] + r[45] <= 0
 mccormick2[46]: - x[46] + r[46] <= 0
 mccormick2[47]: - x[47] + r[47] <= 0
 mccormick2[48]: - x[48] + r[48] <= 0
 mccormick2[49]: - x[49] + r[49] <= 0
 mccormick2[50]: - x[50] + r[50] <= 0
 mccormick2[51]: - x[51] + r[51] <= 0
 mccormick2[52]: - x[52] + r[52] <= 0
 mccormick2[53]: - x[53] + r[53] <= 0
 mccormick2[54]: - x[54] + r[54] <= 0
 mccormick2[55]: - x[55] + r[55] <= 0
 mccormick2[56]: - x[56] + r[56] <= 0
 mccormick2[57]: - x[57] + r[57] <= 0
 mccormick2[58]: - x[58] + r[58] <= 0
 mccormick2[59]: - x[59] + r[59] <= 0
 mccormick2[60]: - x[60] + r[60] <= 0
 mccormick2[61]: - x[61] + r[61] <= 0
 mccormick2[62]: - x[62] + r[62] <= 0
 mccormick2[63]: - x[63] + r[63] <= 0
 mccormick2[64]: - x[64] + r[64] <= 0
 mccormick2[65]: - x[65] + r[65] <= 0
 mccormick2[66]: - x[66] + r[66] <= 0
 mccormick2[67]: - x[67] + r[67] <= 0
 mccormick2[68]: - x[68] + r[68] <= 0
 mccormick2[69]: - x[69] + r[69] <= 0
 mccormick2[70]: - x[70] + r[70] <= 0
 mccormick2[71]: - x[71] + r[71] <= 0
 mccormick2[72]: - x[72] + r[72] <= 0
 mccormick2[73]: - x[73] + r[73] <= 0
 mccormick2[74]: - x[74] + r[74] <= 0
 mccormick2[75]: - x[75] + r[75] <= 0
 mccormick2[76]: - x[76] + r[76] <= 0
 mccormick2[77]: - x[77] + r[77] <= 0
 mccormick2[78]: - x[78] + r[78] <= 0
 mccormick2[79]: - x[79] + r[79] <= 0
 mccormick2[80]: - x[80] + r[80] <= 0
 mccormick2[81]: - x[81] + r[81] <= 0
 mccormick2[82]: - x[82] + r[82] <= 0
 mccormick2[83]: - x[83] + r[83] <= 0
 mccormick2[84]: - x[84] + r[84] <= 0
 mccormick2[85]: - x[85] + r[85] <= 0
 mccormick2[86]: - x[86] + r[86] <= 0
 mccormick2[87]: - x[87] + r[87] <= 0
 mccormick2[88]: - x[88] + r[88] <= 0
 mccormick2[89]: - x[89] + r[89] <= 0
 mccormick2[90]: - x[90] + r[90] <= 0
 mccormick2[91]: - x[91] + r[91] <= 0
 mccormick2[92]: - x[92] + r[92] <= 0
 mccormick2[93]: - x[93] + r[93] <= 0
 mccormick2[94]: - x[94] + r[94] <= 0
 mccormick2[95]: - x[95] + r[95] <= 0
 mccormick2[96]: - x[96] + r[96] <= 0
 mccormick2[97]: - x[97] + r[97] <= 0
 mccormick2[98]: - x[98] + r[98] <= 0
 mccormick2[99]: - x[99] + r[99] <= 0
 mccormick2[100]: - x[100] + r[100] <= 0
 mccormick2[101]: - x[101] + r[101] <= 0
 mccormick2[102]: - x[102] + r[102] <= 0
 mccormick2[103]: - x[103] + r[103] <= 0
 mccormick2[104]: - x[104] + r[104] <= 0
 mccormick2[105]: - x[105] + r[105] <= 0
 mccormick2[106]: - x[106] + r[106] <= 0
 mccormick2[107]: - x[107] + r[107] <= 0
 mccormick2[108]: - x[108] + r[108] <= 0
 mccormick2[109]: - x[109] + r[109] <= 0
 mccormick2[110]: - x[110] + r[110] <= 0
 mccormick2[111]: - x[111] + r[111] <= 0
 mccormick2[112]: - x[112] + r[112] <= 0
 mccormick2[113]: - x[113] + r[113] <= 0
 mccormick2[114]: - x[114] + r[114] <= 0
 mccormick2[115]: - x[115] + r[115] <= 0
 mccormick2[116]: - x[116] + r[116] <= 0
 mccormick2[117]: - x[117] + r[117] <= 0
 mccormick2[118]: - x[118] + r[118] <= 0
 mccormick2[119]: - x[119] + r[119] <= 0
 mccormick2[120]: - x[120] + r[120] <= 0
 mccormick2[121]: - x[121] + r[121] <= 0
 mccormick2[122]: - x[122] + r[122] <= 0
 mccormick2[123]: - x[123] + r[123] <= 0
 mccormick2[124]: - x[124] + r[124] <= 0
 mccormick2[125]: - x[125] + r[125] <= 0
 mccormick2[126]: - x[126] + r[126] <= 0
 mccormick2[127]: - x[127] + r[127] <= 0
 mccormick2[128]: - x[128] + r[128] <= 0
 mccormick2[129]: - x[129] + r[129] <= 0
 mccormick2[130]: - x[130] + r[130] <= 0
 mccormick2[131]: - x[131] + r[131] <= 0
 mccormick2[132]: - x[132] + r[132] <= 0
 mccormick2[133]: - x[133] + r[133] <= 0
 mccormick2[134]: - x[134] + r[134] <= 0
 mccormick2[135]: - x[135] + r[135] <= 0
 mccormick2[136]: - x[136] + r[136] <= 0
 mccormick2[137]: - x[137] + r[137] <= 0
 mccormick2[138]: - x[138] + r[138] <= 0
 mccormick2[139]: - x[139] + r[139] <= 0
 mccormick3[0]: x[0] + u[0] - r[0] <= 1
 mccormick3[1]: x[1] + u[1] - r[1] <= 1
 mccormick3[2]: x[2] + u[2] - r[2] <= 1
 mccormick3[3]: x[3] + u[3] - r[3] <= 1
 mccormick3[4]: x[4] + u[4] - r[4] <= 1
 mccormick3[5]: x[5] + u[5] - r[5] <= 1
 mccormick3[6]: x[6] + u[6] - r[6] <= 1
 mccormick3[7]: x[7] + u[7] - r[7] <= 1
 mccormick3[8]: x[8] + u[8] - r[8] <= 1
 mccormick3[9]: x[9] + u[9] - r[9] <= 1
 mccormick3[10]: x[10] + u[10] - r[10] <= 1
 mccormick3[11]: x[11] + u[11] - r[11] <= 1
 mccormick3[12]: x[12] + u[12] - r[12] <= 1
 mccormick3[13]: x[13] + u[13] - r[13] <= 1
 mccormick3[14]: x[14] + u[14] - r[14] <= 1
 mccormick3[15]: x[15] + u[15] - r[15] <= 1
 mccormick3[16]: x[16] + u[16] - r[16] <= 1
 mccormick3[17]: x[17] + u[17] - r[17] <= 1
 mccormick3[18]: x[18] + u[18] - r[18] <= 1
 mccormick3[19]: x[19] + u[19] - r[19] <= 1
 mccormick3[20]: x[20] + u[20] - r[20] <= 1
 mccormick3[21]: x[21] + u[21] - r[21] <= 1
 mccormick3[22]: x[22] + u[22] - r[22] <= 1
 mccormick3[23]: x[23] + u[23] - r[23] <= 1
 mccormick3[24]: x[24] + u[24] - r[24] <= 1
 mccormick3[25]: x[25] + u[25] - r[25] <= 1
 mccormick3[26]: x[26] + u[26] - r[26] <= 1
 mccormick3[27]: x[27] + u[27] - r[27] <= 1
 mccormick3[28]: x[28] + u[28] - r[28] <= 1
 mccormick3[29]: x[29] + u[29] - r[29] <= 1
 mccormick3[30]: x[30] + u[30] - r[30] <= 1
 mccormick3[31]: x[31] + u[31] - r[31] <= 1
 mccormick3[32]: x[32] + u[32] - r[32] <= 1
 mccormick3[33]: x[33] + u[33] - r[33] <= 1
 mccormick3[34]: x[34] + u[34] - r[34] <= 1
 mccormick3[35]: x[35] + u[35] - r[35] <= 1
 mccormick3[36]: x[36] + u[36] - r[36] <= 1
 mccormick3[37]: x[37] + u[37] - r[37] <= 1
 mccormick3[38]: x[38] + u[38] - r[38] <= 1
 mccormick3[39]: x[39] + u[39] - r[39] <= 1
 mccormick3[40]: x[40] + u[40] - r[40] <= 1
 mccormick3[41]: x[41] + u[41] - r[41] <= 1
 mccormick3[42]: x[42] + u[42] - r[42] <= 1
 mccormick3[43]: x[43] + u[43] - r[43] <= 1
 mccormick3[44]: x[44] + u[44] - r[44] <= 1
 mccormick3[45]: x[45] + u[45] - r[45] <= 1
 mccormick3[46]: x[46] + u[46] - r[46] <= 1
 mccormick3[47]: x[47] + u[47] - r[47] <= 1
 mccormick3[48]: x[48] + u[48] - r[48] <= 1
 mccormick3[49]: x[49] + u[49] - r[49] <= 1
 mccormick3[50]: x[50] + u[50] - r[50] <= 1
 mccormick3[51]: x[51] + u[51] - r[51] <= 1
 mccormick3[52]: x[52] + u[52] - r[52] <= 1
 mccormick3[53]: x[53] + u[53] - r[53] <= 1
 mccormick3[54]: x[54] + u[54] - r[54] <= 1
 mccormick3[55]: x[55] + u[55] - r[55] <= 1
 mccormick3[56]: x[56] + u[56] - r[56] <= 1
 mccormick3[57]: x[57] + u[57] - r[57] <= 1
 mccormick3[58]: x[58] + u[58] - r[58] <= 1
 mccormick3[59]: x[59] + u[59] - r[59] <= 1
 mccormick3[60]: x[60] + u[60] - r[60] <= 1
 mccormick3[61]: x[61] + u[61] - r[61] <= 1
 mccormick3[62]: x[62] + u[62] - r[62] <= 1
 mccormick3[63]: x[63] + u[63] - r[63] <= 1
 mccormick3[64]: x[64] + u[64] - r[64] <= 1
 mccormick3[65]: x[65] + u[65] - r[65] <= 1
 mccormick3[66]: x[66] + u[66] - r[66] <= 1
 mccormick3[67]: x[67] + u[67] - r[67] <= 1
 mccormick3[68]: x[68] + u[68] - r[68] <= 1
 mccormick3[69]: x[69] + u[69] - r[69] <= 1
 mccormick3[70]: x[70] + u[70] - r[70] <= 1
 mccormick3[71]: x[71] + u[71] - r[71] <= 1
 mccormick3[72]: x[72] + u[72] - r[72] <= 1
 mccormick3[73]: x[73] + u[73] - r[73] <= 1
 mccormick3[74]: x[74] + u[74] - r[74] <= 1
 mccormick3[75]: x[75] + u[75] - r[75] <= 1
 mccormick3[76]: x[76] + u[76] - r[76] <= 1
 mccormick3[77]: x[77] + u[77] - r[77] <= 1
 mccormick3[78]: x[78] + u[78] - r[78] <= 1
 mccormick3[79]: x[79] + u[79] - r[79] <= 1
 mccormick3[80]: x[80] + u[80] - r[80] <= 1
 mccormick3[81]: x[81] + u[81] - r[81] <= 1
 mccormick3[82]: x[82] + u[82] - r[82] <= 1
 mccormick3[83]: x[83] + u[83] - r[83] <= 1
 mccormick3[84]: x[84] + u[84] - r[84] <= 1
 mccormick3[85]: x[85] + u[85] - r[85] <= 1
 mccormick3[86]: x[86] + u[86] - r[86] <= 1
 mccormick3[87]: x[87] + u[87] - r[87] <= 1
 mccormick3[88]: x[88] + u[88] - r[88] <= 1
 mccormick3[89]: x[89] + u[89] - r[89] <= 1
 mccormick3[90]: x[90] + u[90] - r[90] <= 1
 mccormick3[91]: x[91] + u[91] - r[91] <= 1
 mccormick3[92]: x[92] + u[92] - r[92] <= 1
 mccormick3[93]: x[93] + u[93] - r[93] <= 1
 mccormick3[94]: x[94] + u[94] - r[94] <= 1
 mccormick3[95]: x[95] + u[95] - r[95] <= 1
 mccormick3[96]: x[96] + u[96] - r[96] <= 1
 mccormick3[97]: x[97] + u[97] - r[97] <= 1
 mccormick3[98]: x[98] + u[98] - r[98] <= 1
 mccormick3[99]: x[99] + u[99] - r[99] <= 1
 mccormick3[100]: x[100] + u[100] - r[100] <= 1
 mccormick3[101]: x[101] + u[101] - r[101] <= 1
 mccormick3[102]: x[102] + u[102] - r[102] <= 1
 mccormick3[103]: x[103] + u[103] - r[103] <= 1
 mccormick3[104]: x[104] + u[104] - r[104] <= 1
 mccormick3[105]: x[105] + u[105] - r[105] <= 1
 mccormick3[106]: x[106] + u[106] - r[106] <= 1
 mccormick3[107]: x[107] + u[107] - r[107] <= 1
 mccormick3[108]: x[108] + u[108] - r[108] <= 1
 mccormick3[109]: x[109] + u[109] - r[109] <= 1
 mccormick3[110]: x[110] + u[110] - r[110] <= 1
 mccormick3[111]: x[111] + u[111] - r[111] <= 1
 mccormick3[112]: x[112] + u[112] - r[112] <= 1
 mccormick3[113]: x[113] + u[113] - r[113] <= 1
 mccormick3[114]: x[114] + u[114] - r[114] <= 1
 mccormick3[115]: x[115] + u[115] - r[115] <= 1
 mccormick3[116]: x[116] + u[116] - r[116] <= 1
 mccormick3[117]: x[117] + u[117] - r[117] <= 1
 mccormick3[118]: x[118] + u[118] - r[118] <= 1
 mccormick3[119]: x[119] + u[119] - r[119] <= 1
 mccormick3[120]: x[120] + u[120] - r[120] <= 1
 mccormick3[121]: x[121] + u[121] - r[121] <= 1
 mccormick3[122]: x[122] + u[122] - r[122] <= 1
 mccormick3[123]: x[123] + u[123] - r[123] <= 1
 mccormick3[124]: x[124] + u[124] - r[124] <= 1
 mccormick3[125]: x[125] + u[125] - r[125] <= 1
 mccormick3[126]: x[126] + u[126] - r[126] <= 1
 mccormick3[127]: x[127] + u[127] - r[127] <= 1
 mccormick3[128]: x[128] + u[128] - r[128] <= 1
 mccormick3[129]: x[129] + u[129] - r[129] <= 1
 mccormick3[130]: x[130] + u[130] - r[130] <= 1
 mccormick3[131]: x[131] + u[131] - r[131] <= 1
 mccormick3[132]: x[132] + u[132] - r[132] <= 1
 mccormick3[133]: x[133] + u[133] - r[133] <= 1
 mccormick3[134]: x[134] + u[134] - r[134] <= 1
 mccormick3[135]: x[135] + u[135] - r[135] <= 1
 mccormick3[136]: x[136] + u[136] - r[136] <= 1
 mccormick3[137]: x[137] + u[137] - r[137] <= 1
 mccormick3[138]: x[138] + u[138] - r[138] <= 1
 mccormick3[139]: x[139] + u[139] - r[139] <= 1
Bounds
Binaries
 x[0] x[1] x[2] x[3] x[4] x[5] x[6] x[7] x[8] x[9] x[10] x[11] x[12] x[13]
 x[14] x[15] x[16] x[17] x[18] x[19] x[20] x[21] x[22] x[23] x[24] x[25]
 x[26] x[27] x[28] x[29] x[30] x[31] x[32] x[33] x[34] x[35] x[36] x[37]
 x[38] x[39] x[40] x[41] x[42] x[43] x[44] x[45] x[46] x[47] x[48] x[49]
 x[50] x[51] x[52] x[53] x[54] x[55] x[56] x[57] x[58] x[59] x[60] x[61]
 x[62] x[63] x[64] x[65] x[66] x[67] x[68] x[69] x[70] x[71] x[72] x[73]
 x[74] x[75] x[76] x[77] x[78] x[79] x[80] x[81] x[82] x[83] x[84] x[85]
 x[86] x[87] x[88] x[89] x[90] x[91] x[92] x[93] x[94] x[95] x[96] x[97]
 x[98] x[99] x[100] x[101] x[102] x[103] x[104] x[105] x[106] x[107] x[108]
 x[109] x[110] x[111] x[112] x[113] x[114] x[115] x[116] x[117] x[118]
 x[119] x[120] x[121] x[122] x[123] x[124] x[125] x[126] x[127] x[128]
 x[129] x[130] x[131] x[132] x[133] x[134] x[135] x[136] x[137] x[138]
 x[139] u[0] u[1] u[2] u[3] u[4] u[5] u[6] u[7] u[8] u[9] u[10] u[11] u[12]
 u[13] u[14] u[15] u[16] u[17] u[18] u[19] u[20] u[21] u[22] u[23] u[24]
 u[25] u[26] u[27] u[28] u[29] u[30] u[31] u[32] u[33] u[34] u[35] u[36]
 u[37] u[38] u[39] u[40] u[41] u[42] u[43] u[44] u[45] u[46] u[47] u[48]
 u[49] u[50] u[51] u[52] u[53] u[54] u[55] u[56] u[57] u[58] u[59] u[60]
 u[61] u[62] u[63] u[64] u[65] u[66] u[67] u[68] u[69] u[70] u[71] u[72]
 u[73] u[74] u[75] u[76] u[77] u[78] u[79] u[80] u[81] u[82] u[83] u[84]
 u[85] u[86] u[87] u[88] u[89] u[90] u[91] u[92] u[93] u[94] u[95] u[96]
 u[97] u[98] u[99] u[100] u[101] u[102] u[103] u[104] u[105] u[106] u[107]
 u[108] u[109] u[110] u[111] u[112] u[113] u[114] u[115] u[116] u[117]
 u[118] u[119] u[120] u[121] u[122] u[123] u[124] u[125] u[126] u[127]
 u[128] u[129] u[130] u[131] u[132] u[133] u[134] u[135] u[136] u[137]
 u[138] u[139] r[0] r[1] r[2] r[3] r[4] r[5] r[6] r[7] r[8] r[9] r[10]
 r[11] r[12] r[13] r[14] r[15] r[16] r[17] r[18] r[19] r[20] r[21] r[22]
 r[23] r[24] r[25] r[26] r[27] r[28] r[29] r[30] r[31] r[32] r[33] r[34]
 r[35] r[36] r[37] r[38] r[39] r[40] r[41] r[42] r[43] r[44] r[45] r[46]
 r[47] r[48] r[49] r[50] r[51] r[52] r[53] r[54] r[55] r[56] r[57] r[58]
 r[59] r[60] r[61] r[62] r[63] r[64] r[65] r[66] r[67] r[68] r[69] r[70]
 r[71] r[72] r[73] r[74] r[75] r[76] r[77] r[78] r[79] r[80] r[81] r[82]
 r[83] r[84] r[85] r[86] r[87] r[88] r[89] r[90] r[91] r[92] r[93] r[94]
 r[95] r[96] r[97] r[98] r[99] r[100] r[101] r[102] r[103] r[104] r[105]
 r[106] r[107] r[108] r[109] r[110] r[111] r[112] r[113] r[114] r[115]
 r[116] r[117] r[118] r[119] r[120] r[121] r[122] r[123] r[124] r[125]
 r[126] r[127] r[128] r[129] r[130] r[131] r[132] r[133] r[134] r[135]
 r[136] r[137] r[138] r[139]
End
